; benchmark generated from python API
(set-info :status unknown)
(declare-fun x_month () Int)
(declare-fun x_year () Int)
(declare-fun x_day () Int)
(declare-fun y_month () Int)
(declare-fun y_year () Int)
(declare-fun y_day () Int)
(assert
 (let (($x682 (or (= x_month 4) (= x_month 6) (= x_month 9) (= x_month 11))))
 (let ((?x864 (ite $x682 30 31)))
 (let (($x854 (= (mod x_year 400) 0)))
 (let (($x966 (= (mod x_year 4) 0)))
 (let ((?x863 (ite (or (and $x966 (and (distinct (mod x_year 100) 0) true)) $x854) 29 28)))
 (let (($x454 (= x_month 2)))
 (let (($x834 (<= x_day (ite $x454 ?x863 ?x864))))
 (let (($x457 (>= x_day 1)))
 (let (($x846 (<= x_month 2)))
 (let (($x837 (>= x_month 1)))
 (let (($x843 (= x_year 2100)))
 (let (($x442 (<= x_month 12)))
 (let (($x835 (<= x_year 2099)))
 (let (($x603 (>= x_year 1901)))
 (or (and (= x_year 1900) (>= x_month 3) $x442 $x457 $x834) (and $x603 $x835 $x837 $x442 $x457 $x834) (and $x843 $x837 $x846 $x457 $x834)))))))))))))))))
(assert
 (let (($x403 (or (= y_month 4) (= y_month 6) (= y_month 9) (= y_month 11))))
 (let ((?x577 (ite $x403 30 31)))
 (let (($x885 (= (mod y_year 400) 0)))
 (let (($x861 (= (mod y_year 4) 0)))
 (let ((?x431 (ite (or (and $x861 (and (distinct (mod y_year 100) 0) true)) $x885) 29 28)))
 (let (($x858 (= y_month 2)))
 (let (($x449 (<= y_day (ite $x858 ?x431 ?x577))))
 (let (($x810 (>= y_day 1)))
 (let (($x485 (<= y_month 2)))
 (let (($x488 (>= y_month 1)))
 (let (($x498 (= y_year 2100)))
 (let (($x848 (<= y_month 12)))
 (let (($x855 (<= y_year 2099)))
 (let (($x852 (>= y_year 1901)))
 (or (and (= y_year 1900) (>= y_month 3) $x848 $x810 $x449) (and $x852 $x855 $x488 $x848 $x810 $x449) (and $x498 $x488 $x485 $x810 $x449)))))))))))))))))
(assert
 (let (($x877 (= x_year 2019)))
 (let (($x645 (and $x877 (or (> x_month 12) (and (= x_month 12) (>= x_day 31))))))
 (or (> x_year 2019) $x645))))
(assert
 (let (($x575 (= x_year 2020)))
 (let (($x815 (and $x575 (or (< x_month 2) (and (= x_month 2) (<= x_day 1))))))
 (or (< x_year 2020) $x815))))
(assert
 (let ((?x825 (+ (mod (- (+ x_month (+ (* 1 12) 0)) 1) 12) 1)))
 (let ((?x1006 (ite (or (= ?x825 4) (= ?x825 6) (= ?x825 9) (= ?x825 11)) 30 31)))
 (let ((?x874 (+ 0 (div (- (+ x_month (+ (* 1 12) 0)) 1) 12))))
 (let ((?x865 (+ x_year ?x874)))
 (let (($x853 (or (and (= (mod ?x865 4) 0) (and (distinct (mod ?x865 100) 0) true)) (= (mod ?x865 400) 0))))
 (let ((?x588 (ite (= ?x825 2) (ite $x853 29 28) ?x1006)))
 (let (($x766 (< x_day 1)))
 (let ((?x763 (ite $x766 1 (ite (> x_day ?x588) ?x588 x_day))))
 (let ((?x1026 (ite (< ?x763 1) 1 (ite (> ?x763 ?x588) ?x588 ?x763))))
 (let ((?x606 (ite (= 2 ?x825) (ite $x853 31 31) (ite (= 1 ?x825) (ite $x853 0 0) 0))))
 (let ((?x616 (ite (= 4 ?x825) (ite $x853 91 90) (ite (= 3 ?x825) (ite $x853 60 59) ?x606))))
 (let ((?x974 (ite (= 6 ?x825) (ite $x853 152 151) (ite (= 5 ?x825) (ite $x853 121 120) ?x616))))
 (let ((?x491 (ite (= 8 ?x825) (ite $x853 213 212) (ite (= 7 ?x825) (ite $x853 182 181) ?x974))))
 (let ((?x740 (ite (= 10 ?x825) (ite $x853 274 273) (ite (= 9 ?x825) (ite $x853 244 243) ?x491))))
 (let ((?x503 (ite (= 12 ?x825) (ite $x853 335 334) (ite (= 11 ?x825) (ite $x853 305 304) ?x740))))
 (let ((?x632 (- (+ (* 365 (- ?x865 1)) (div (- ?x865 1) 4)) (div (- ?x865 1) 100))))
 (let ((?x487 (- (+ (+ (+ ?x632 (div (- ?x865 1) 400)) ?x503) (- ?x1026 1)) 730179)))
 (let ((?x1088 (+ (+ ?x487 0) 730179)))
 (let ((?x608 (mod ?x1088 146097)))
 (let ((?x609 (div ?x608 36524)))
 (let ((?x406 (ite (<= 4 ?x609) 3 ?x609)))
 (let ((?x544 (- ?x608 (* ?x406 36524))))
 (let ((?x1057 (mod ?x544 1461)))
 (let ((?x573 (div ?x1057 365)))
 (let ((?x1062 (ite (<= 4 ?x573) 3 ?x573)))
 (let ((?x703 (+ (+ (* (div ?x1088 146097) 400) (* ?x406 100)) (* (div ?x544 1461) 4))))
 (let ((?x502 (+ (+ ?x703 ?x1062) 1)))
 (let (($x492 (or (and (= (mod ?x502 4) 0) (and (distinct (mod ?x502 100) 0) true)) (= (mod ?x502 400) 0))))
 (let ((?x543 (- ?x1057 (* ?x1062 365))))
 (let ((?x576 (ite $x492 31 31)))
 (let (($x696 (>= ?x543 ?x576)))
 (let ((?x760 (ite $x696 (+ (- ?x543 ?x576) 1) (+ (- ?x543 (ite $x492 0 0)) 1))))
 (let ((?x475 (ite $x492 60 59)))
 (let (($x715 (>= ?x543 ?x475)))
 (let ((?x572 (ite $x492 91 90)))
 (let (($x676 (>= ?x543 ?x572)))
 (let ((?x560 (ite $x676 (+ (- ?x543 ?x572) 1) (ite $x715 (+ (- ?x543 ?x475) 1) ?x760))))
 (let ((?x1059 (ite $x492 121 120)))
 (let (($x725 (>= ?x543 ?x1059)))
 (let ((?x1060 (ite $x492 152 151)))
 (let (($x561 (>= ?x543 ?x1060)))
 (let ((?x717 (ite $x561 (+ (- ?x543 ?x1060) 1) (ite $x725 (+ (- ?x543 ?x1059) 1) ?x560))))
 (let ((?x578 (ite $x492 182 181)))
 (let (($x519 (>= ?x543 ?x578)))
 (let ((?x473 (ite $x492 213 212)))
 (let (($x1078 (>= ?x543 ?x473)))
 (let ((?x1100 (ite $x1078 (+ (- ?x543 ?x473) 1) (ite $x519 (+ (- ?x543 ?x578) 1) ?x717))))
 (let ((?x536 (ite $x492 244 243)))
 (let (($x1099 (>= ?x543 ?x536)))
 (let ((?x591 (ite $x492 274 273)))
 (let (($x1167 (>= ?x543 ?x591)))
 (let ((?x1017 (ite $x1167 (+ (- ?x543 ?x591) 1) (ite $x1099 (+ (- ?x543 ?x536) 1) ?x1100))))
 (let ((?x1000 (ite $x492 305 304)))
 (let (($x555 (>= ?x543 ?x1000)))
 (let ((?x1012 (ite $x492 335 334)))
 (let (($x757 (>= ?x543 ?x1012)))
 (let ((?x666 (ite $x757 (+ (- ?x543 ?x1012) 1) (ite $x555 (+ (- ?x543 ?x1000) 1) ?x1017))))
 (let (($x443 (= 0 0)))
 (let ((?x661 (ite $x725 5 (ite $x676 4 (ite $x715 3 (ite $x696 2 1))))))
 (let ((?x1101 (ite $x1099 9 (ite $x1078 8 (ite $x519 7 (ite $x561 6 ?x661))))))
 (let (($x881 (= y_month (ite $x443 ?x825 (ite $x757 12 (ite $x555 11 (ite $x1167 10 ?x1101)))))))
 (and (= y_year (ite $x443 ?x865 ?x502)) $x881 (= y_day (ite $x443 ?x1026 ?x666)))))))))))))))))))))))))))))))))))))))))))))))))))))))))))))))))
(assert
 (let ((?x949 (+ (mod (- (+ x_month (+ (* 0 12) 0)) 1) 12) 1)))
(let ((?x940 (ite (or (= ?x949 4) (= ?x949 6) (= ?x949 9) (= ?x949 11)) 30 31)))
(let ((?x953 (+ 0 (div (- (+ x_month (+ (* 0 12) 0)) 1) 12))))
(let ((?x906 (+ x_year ?x953)))
(let (($x920 (or (and (= (mod ?x906 4) 0) (and (distinct (mod ?x906 100) 0) true)) (= (mod ?x906 400) 0))))
(let ((?x919 (ite (= ?x949 2) (ite $x920 29 28) ?x940)))
(let (($x766 (< x_day 1)))
(let ((?x944 (ite $x766 1 (ite (> x_day ?x919) ?x919 x_day))))
(let ((?x720 (ite (< ?x944 1) 1 (ite (> ?x944 ?x919) ?x919 ?x944))))
(let ((?x429 (ite (= 2 ?x949) (ite $x920 31 31) (ite (= 1 ?x949) (ite $x920 0 0) 0))))
(let ((?x933 (ite (= 4 ?x949) (ite $x920 91 90) (ite (= 3 ?x949) (ite $x920 60 59) ?x429))))
(let ((?x459 (ite (= 6 ?x949) (ite $x920 152 151) (ite (= 5 ?x949) (ite $x920 121 120) ?x933))))
(let ((?x440 (ite (= 8 ?x949) (ite $x920 213 212) (ite (= 7 ?x949) (ite $x920 182 181) ?x459))))
(let ((?x590 (ite (= 10 ?x949) (ite $x920 274 273) (ite (= 9 ?x949) (ite $x920 244 243) ?x440))))
(let ((?x893 (ite (= 12 ?x949) (ite $x920 335 334) (ite (= 11 ?x949) (ite $x920 305 304) ?x590))))
(let ((?x462 (- (+ (* 365 (- ?x906 1)) (div (- ?x906 1) 4)) (div (- ?x906 1) 100))))
(let ((?x458 (- (+ (+ (+ ?x462 (div (- ?x906 1) 400)) ?x893) (- ?x720 1)) 730179)))
(let ((?x448 (+ (+ ?x458 365) 730179)))
(let ((?x917 (mod ?x448 146097)))
(let ((?x916 (div ?x917 36524)))
(let ((?x932 (ite (<= 4 ?x916) 3 ?x916)))
(let ((?x964 (- ?x917 (* ?x932 36524))))
(let ((?x805 (mod ?x964 1461)))
(let ((?x453 (div ?x805 365)))
(let ((?x3530 (ite (<= 4 ?x453) 3 ?x453)))
(let ((?x1128 (+ (+ (* (div ?x448 146097) 400) (* ?x932 100)) (* (div ?x964 1461) 4))))
(let ((?x746 (+ (+ ?x1128 ?x3530) 1)))
(let (($x570 (or (and (= (mod ?x746 4) 0) (and (distinct (mod ?x746 100) 0) true)) (= (mod ?x746 400) 0))))
(let ((?x1102 (- ?x805 (* ?x3530 365))))
(let ((?x1106 (ite $x570 31 31)))
(let (($x758 (>= ?x1102 ?x1106)))
(let ((?x3040 (ite $x758 (+ (- ?x1102 ?x1106) 1) (+ (- ?x1102 (ite $x570 0 0)) 1))))
(let ((?x1104 (ite $x570 60 59)))
(let (($x756 (>= ?x1102 ?x1104)))
(let ((?x1112 (ite $x570 91 90)))
(let (($x1158 (>= ?x1102 ?x1112)))
(let ((?x3086 (ite $x1158 (+ (- ?x1102 ?x1112) 1) (ite $x756 (+ (- ?x1102 ?x1104) 1) ?x3040))))
(let ((?x1105 (ite $x570 121 120)))
(let (($x1108 (>= ?x1102 ?x1105)))
(let ((?x1114 (ite $x570 152 151)))
(let (($x1175 (>= ?x1102 ?x1114)))
(let ((?x3024 (ite $x1175 (+ (- ?x1102 ?x1114) 1) (ite $x1108 (+ (- ?x1102 ?x1105) 1) ?x3086))))
(let ((?x1107 (ite $x570 182 181)))
(let (($x1176 (>= ?x1102 ?x1107)))
(let ((?x1170 (ite $x570 213 212)))
(let (($x1180 (>= ?x1102 ?x1170)))
(let ((?x2983 (ite $x1180 (+ (- ?x1102 ?x1170) 1) (ite $x1176 (+ (- ?x1102 ?x1107) 1) ?x3024))))
(let ((?x1113 (ite $x570 244 243)))
(let (($x1182 (>= ?x1102 ?x1113)))
(let ((?x749 (ite $x570 274 273)))
(let (($x1134 (>= ?x1102 ?x749)))
(let ((?x3453 (ite $x1134 (+ (- ?x1102 ?x749) 1) (ite $x1182 (+ (- ?x1102 ?x1113) 1) ?x2983))))
(let ((?x1165 (ite $x570 305 304)))
(let (($x668 (>= ?x1102 ?x1165)))
(let ((?x1139 (ite $x570 335 334)))
(let (($x1044 (>= ?x1102 ?x1139)))
(let ((?x3493 (ite $x1044 (+ (- ?x1102 ?x1139) 1) (ite $x668 (+ (- ?x1102 ?x1165) 1) ?x3453))))
(let (($x437 (= 0 365)))
(let ((?x1174 (ite $x1108 5 (ite $x1158 4 (ite $x756 3 (ite $x758 2 1))))))
(let ((?x1183 (ite $x1182 9 (ite $x1180 8 (ite $x1176 7 (ite $x1175 6 ?x1174))))))
(let ((?x1058 (ite $x1044 12 (ite $x668 11 (ite $x1134 10 ?x1183)))))
(let (($x2646 (and (= y_year (ite $x437 ?x906 ?x746)) (= y_month (ite $x437 ?x949 ?x1058)) (= y_day (ite $x437 ?x720 ?x3493)))))
(not $x2646))))))))))))))))))))))))))))))))))))))))))))))))))))))))))))))))
(check-sat)
